NAME: random_20_2
TYPE: TSP
COMMENT: random_20_2
DIMENSION: 20
EDGE_WEIGHT_TYPE: EUC_2D
NODE_COORD_SECTION
1 351 19
2 68 64
3 497 338
4 233 344
5 244 269
6 222 108
7 21 154
8 354 300
9 77 440
10 243 442
11 28 89
12 144 103
13 160 126
14 345 221
15 405 440
16 214 169
17 244 82
18 32 202
19 305 496
20 319 387
